LengthSchedulingHorizon=77259;
nAttributes=5;
SetupCosts=[[0, 0, 0, 0, 0], [0, 23, 21, 7, 13], [23, 19, 25, 10, 7], [21, 25, 5, 22, 7], [7, 10, 22, 14, 4], [13, 7, 7, 4, 23]];
SetupTimes=[[0, 0, 0, 0, 0], [4, 7, 3, 21, 0], [7, 20, 24, 7, 17], [3, 24, 2, 3, 1], [21, 7, 3, 7, 8], [0, 17, 1, 8, 17]];
nMachines=5;
MinCap=[0, 0, 0, 0, 0];
MaxCap=[16, 18, 14, 10, 17];

initState=[2, 1, 3, 4, 2];
nShifts=5;
ShiftStartTimes = [[48025, 64834, 71150, 74055, 75226], [0, 53112, 63532, 64913, 75389], [0, 46585, 65071, 67184, 73050], [24683, 49828, 51589, 58116, 62975], [0, 0, 53615, 59959, 68929]];
ShiftEndTimes = [[63487, 67453, 71935, 75187, 76958], [0, 60699, 64346, 73392, 75893], [0, 64606, 66484, 69814, 74840], [49177, 50812, 57207, 61593, 70984], [0, 0, 57120, 67631, 73632]];
nJobs=250;
EligibleMachines = [{2, 5}, {1, 3}, {1, 3, 4}, {1, 3, 4, 5}, {1, 2, 4, 5}, {1, 2, 3, 5}, {3, 4, 5}, {1, 3, 5}, {1, 3, 4, 5}, {1, 2, 4}, {1, 3, 5}, {2, 3, 5}, {3, 4, 5}, {2, 3, 5}, {5}, {1, 2, 4, 5}, {2, 3}, {1, 3}, {1, 3, 5}, {2, 3, 4, 5}, {1, 2, 3, 4, 5}, {4, 5}, {1, 3, 4}, {1, 2, 4}, {2, 5}, {2, 4, 5}, {2, 5}, {3, 4, 5}, {2, 3, 4, 5}, {3, 4, 5}, {2, 3}, {1, 2, 3, 4}, {3, 4, 5}, {3}, {3, 5}, {3, 5}, {2, 4, 5}, {1, 2, 4, 5}, {1, 3, 5}, {1, 2, 3, 4}, {1, 3, 4, 5}, {2, 3, 4}, {2, 4, 5}, {1, 2, 3}, {2, 3}, {1, 4, 5}, {1, 3, 4}, {1, 2, 3}, {3, 4}, {1, 2, 3}, {1, 2, 3}, {2}, {1, 2, 3, 4, 5}, {1}, {3, 5}, {1, 2, 3, 4}, {2, 3, 4}, {4, 5}, {3, 5}, {2, 3}, {1, 2, 4}, {3, 4}, {1, 2}, {1, 5}, {1, 2, 4, 5}, {1, 2, 3}, {2, 3}, {2, 3, 5}, {1, 2, 3, 4, 5}, {1, 2, 3, 4, 5}, {2, 4, 5}, {1, 2, 4, 5}, {1, 2, 3, 4, 5}, {3}, {1, 3, 4}, {1, 2, 3}, {4}, {1, 2, 3, 4, 5}, {1, 2, 4, 5}, {1, 2, 3, 4}, {1, 3, 4, 5}, {1, 2, 4, 5}, {1, 2, 4, 5}, {1, 2, 3, 4, 5}, {5}, {1, 2, 4, 5}, {2, 3, 4}, {2, 3, 4, 5}, {1, 5}, {2, 3, 4, 5}, {1, 2, 3, 4}, {1, 2, 4, 5}, {1, 3, 4, 5}, {1, 3, 4, 5}, {1, 2, 3, 4, 5}, {3, 4, 5}, {2, 4}, {2, 3, 4, 5}, {1, 2, 3, 4}, {1, 3, 4}, {1, 4, 5}, {1, 3, 4}, {1, 5}, {3}, {1, 2, 5}, {3, 4, 5}, {1, 2, 3, 4, 5}, {2, 4}, {1, 2, 3, 5}, {4}, {1, 4, 5}, {1, 5}, {2, 3, 4, 5}, {1, 2, 3, 4, 5}, {1, 5}, {1, 3, 4, 5}, {1, 2, 3, 4}, {1, 3, 5}, {1, 5}, {1, 2, 3}, {1, 3, 4, 5}, {1, 2, 3, 4, 5}, {1, 3, 5}, {1, 2, 3, 4, 5}, {1, 4}, {2, 3}, {1, 2, 4, 5}, {3, 4, 5}, {1, 2, 3}, {1, 2, 3, 4}, {1, 2, 3, 5}, {1, 3, 5}, {2, 4, 5}, {5}, {1, 2, 4, 5}, {1}, {3, 5}, {4, 5}, {2, 4}, {2, 4, 5}, {1, 3, 4}, {1, 2, 3, 4}, {2, 3, 4, 5}, {1, 2, 4, 5}, {2, 4}, {1, 2}, {1, 2, 3, 4, 5}, {4, 5}, {1, 2, 3, 5}, {1, 2, 3, 5}, {1, 3, 4, 5}, {5}, {1, 2, 3, 5}, {1, 2, 3}, {1, 2, 3}, {2, 3, 4, 5}, {1, 2, 3, 5}, {3, 4, 5}, {1, 3, 4, 5}, {1, 2, 3, 5}, {2, 3}, {2, 5}, {1, 2, 3, 4, 5}, {1, 5}, {1, 2, 3}, {1, 3, 4, 5}, {1, 3, 4}, {2, 5}, {1, 2, 3, 5}, {1, 2, 3, 4, 5}, {1, 2, 4, 5}, {1, 3}, {1, 3, 4, 5}, {1, 3, 4}, {2, 5}, {1, 2, 3, 4}, {1, 3, 5}, {1, 2, 3, 5}, {2, 3, 4, 5}, {1, 2, 3, 4, 5}, {1, 2, 5}, {1, 5}, {1, 4}, {1, 3, 4}, {1, 2, 4}, {2, 3, 4}, {2, 3, 4, 5}, {1, 3, 5}, {1, 3}, {1, 2, 4, 5}, {2, 4, 5}, {1, 2, 5}, {2, 5}, {3, 4, 5}, {1, 2, 3}, {1, 2, 5}, {2}, {3, 5}, {1, 4, 5}, {1, 4, 5}, {1, 3, 5}, {1, 3, 5}, {3, 4, 5}, {2, 4, 5}, {2, 3, 5}, {1, 2, 3, 5}, {1, 2, 4, 5}, {1, 3, 4, 5}, {2, 3, 4}, {1, 2, 3}, {1, 2, 3, 4, 5}, {1, 4, 5}, {1, 3, 4, 5}, {1, 2, 4, 5}, {1, 3, 4, 5}, {1, 2, 3, 4}, {1, 2, 3, 4}, {1, 2, 4, 5}, {1, 2}, {1, 3, 4, 5}, {2, 4}, {1, 3, 5}, {1, 4}, {1, 3, 4, 5}, {1, 2, 3, 4, 5}, {1, 3, 4, 5}, {1, 2, 3}, {4}, {1, 3, 4, 5}, {1, 2}, {1, 4}, {1, 2, 3, 4, 5}, {1, 2, 3, 5}, {3, 4, 5}, {2, 3}, {5}, {4, 5}, {3, 4}, {3}, {1, 2, 4}, {1, 2, 3, 4, 5}, {1, 2, 4}, {1, 3, 4, 5}, {1, 5}, {2, 5}, {1, 2, 4}, {2, 3}, {2, 3}, {2, 3, 4, 5}, {1, 2, 3, 4, 5}];
EarliestStart=[953, 642, 1086, 1046, 290, 831, 331, 1014, 161, 662, 272, 378, 557, 768, 1243, 256, 24, 1048, 445, 305, 1220, 1080, 1251, 151, 789, 699, 612, 63, 800, 248, 912, 767, 607, 1299, 49, 191, 857, 57, 650, 781, 446, 1203, 135, 987, 702, 837, 656, 921, 1173, 759, 553, 1285, 221, 1114, 439, 1172, 691, 935, 257, 890, 219, 267, 214, 1213, 1049, 805, 1071, 557, 719, 1052, 699, 1267, 398, 963, 1158, 17, 945, 263, 748, 1251, 43, 990, 190, 40, 994, 927, 545, 793, 859, 176, 800, 1221, 1100, 1060, 562, 179, 989, 221, 1237, 1197, 1065, 99, 201, 121, 59, 586, 886, 557, 1255, 422, 227, 427, 186, 305, 847, 528, 77, 173, 219, 122, 259, 278, 998, 543, 252, 777, 166, 638, 401, 979, 327, 723, 325, 851, 186, 1244, 789, 68, 1281, 408, 40, 1288, 837, 436, 1248, 372, 1035, 795, 212, 33, 101, 816, 2, 1115, 937, 787, 400, 958, 1169, 582, 419, 248, 155, 275, 95, 804, 102, 635, 118, 903, 1039, 8, 192, 1110, 82, 271, 740, 561, 595, 1179, 1042, 670, 425, 367, 877, 811, 721, 510, 1213, 698, 843, 1131, 199, 699, 1288, 1091, 1132, 561, 341, 444, 269, 399, 676, 609, 293, 93, 623, 191, 1032, 666, 46, 1139, 362, 1289, 839, 1048, 1123, 1087, 697, 583, 82, 891, 721, 720, 59, 1208, 1109, 793, 1122, 291, 438, 179, 219, 150, 909, 642, 1294, 1115, 74, 784, 187, 530, 777, 547, 651, 1003, 768, 209, 1159, 239];
LatestEnd=[1121, 676, 1185, 1056, 466, 946, 447, 1055, 177, 673, 406, 415, 562, 891, 1276, 353, 122, 1112, 522, 354, 1261, 1119, 1288, 152, 886, 743, 654, 94, 978, 340, 924, 823, 654, 1304, 81, 282, 868, 154, 769, 845, 533, 1344, 156, 1028, 705, 914, 799, 1073, 1183, 843, 623, 1350, 295, 1138, 536, 1248, 873, 1062, 306, 977, 284, 379, 284, 1295, 1198, 884, 1235, 711, 804, 1122, 766, 1299, 490, 968, 1257, 74, 963, 418, 904, 1262, 80, 1040, 203, 114, 1141, 992, 677, 812, 884, 243, 904, 1262, 1151, 1064, 694, 187, 1023, 291, 1282, 1299, 1140, 278, 223, 263, 208, 670, 975, 661, 1314, 471, 314, 430, 341, 346, 893, 538, 131, 174, 291, 166, 320, 391, 1094, 570, 316, 830, 351, 763, 416, 1092, 340, 824, 429, 932, 224, 1284, 829, 117, 1359, 476, 189, 1316, 943, 507, 1349, 537, 1127, 800, 334, 131, 160, 880, 125, 1258, 1059, 945, 411, 1096, 1196, 692, 522, 254, 215, 408, 135, 821, 169, 694, 289, 1071, 1189, 35, 278, 1149, 168, 332, 767, 589, 664, 1259, 1178, 821, 548, 417, 888, 954, 811, 637, 1269, 754, 904, 1165, 214, 828, 1468, 1218, 1275, 637, 384, 554, 337, 419, 708, 714, 294, 130, 787, 267, 1098, 760, 181, 1240, 454, 1390, 1006, 1131, 1131, 1125, 852, 646, 159, 980, 865, 786, 160, 1266, 1122, 868, 1167, 434, 533, 264, 350, 263, 935, 728, 1421, 1143, 109, 930, 291, 699, 813, 653, 747, 1083, 894, 279, 1175, 276];
MinTime=[98, 20, 80, 8, 90, 87, 76, 32, 15, 6, 95, 22, 4, 91, 18, 72, 82, 41, 51, 26, 21, 22, 25, 1, 76, 25, 32, 17, 91, 59, 7, 50, 26, 4, 22, 82, 11, 60, 68, 48, 64, 75, 12, 33, 2, 68, 94, 87, 10, 50, 68, 48, 65, 13, 92, 76, 95, 79, 32, 65, 55, 60, 41, 57, 100, 45, 97, 100, 69, 37, 62, 22, 74, 4, 62, 47, 11, 93, 100, 9, 32, 46, 7, 41, 92, 59, 85, 14, 13, 47, 87, 33, 29, 4, 93, 5, 34, 56, 34, 57, 72, 94, 18, 74, 89, 46, 75, 62, 51, 46, 66, 3, 80, 24, 33, 10, 54, 1, 66, 41, 61, 83, 88, 23, 50, 30, 94, 70, 11, 58, 13, 55, 59, 43, 37, 38, 28, 34, 52, 46, 85, 24, 64, 68, 81, 85, 54, 5, 71, 83, 52, 34, 91, 93, 97, 89, 7, 95, 24, 60, 53, 5, 51, 93, 33, 12, 44, 37, 88, 95, 83, 20, 49, 20, 57, 37, 20, 20, 42, 66, 77, 89, 99, 28, 7, 79, 64, 67, 46, 48, 32, 33, 10, 93, 93, 80, 73, 71, 35, 70, 42, 17, 18, 77, 1, 32, 86, 71, 37, 60, 70, 87, 54, 59, 84, 65, 6, 24, 87, 55, 48, 78, 91, 40, 64, 50, 11, 56, 28, 78, 65, 50, 85, 73, 25, 60, 71, 23, 27, 75, 94, 94, 31, 86, 79, 45, 80, 52, 10, 28];
MaxTime=[100, 100, 100, 100, 100, 100, 100, 100, 100, 100, 100, 100, 100, 100, 100, 100, 100, 100, 100, 100, 100, 100, 100, 100, 100, 100, 100, 100, 100, 100, 100, 100, 100, 100, 100, 100, 100, 100, 100, 100, 100, 100, 100, 100, 100, 100, 100, 100, 100, 100, 100, 100, 100, 100, 100, 100, 100, 100, 100, 100, 100, 100, 100, 100, 100, 100, 100, 100, 100, 100, 100, 100, 100, 100, 100, 100, 100, 100, 100, 100, 100, 100, 100, 100, 100, 100, 100, 100, 100, 100, 100, 100, 100, 100, 100, 100, 100, 100, 100, 100, 100, 100, 100, 100, 100, 100, 100, 100, 100, 100, 100, 100, 100, 100, 100, 100, 100, 100, 100, 100, 100, 100, 100, 100, 100, 100, 100, 100, 100, 100, 100, 100, 100, 100, 100, 100, 100, 100, 100, 100, 100, 100, 100, 100, 100, 100, 100, 100, 100, 100, 100, 100, 100, 100, 100, 100, 100, 100, 100, 100, 100, 100, 100, 100, 100, 100, 100, 100, 100, 100, 100, 100, 100, 100, 100, 100, 100, 100, 100, 100, 100, 100, 100, 100, 100, 100, 100, 100, 100, 100, 100, 100, 100, 100, 100, 100, 100, 100, 100, 100, 100, 100, 100, 100, 100, 100, 100, 100, 100, 100, 100, 100, 100, 100, 100, 100, 100, 100, 100, 100, 100, 100, 100, 100, 100, 100, 100, 100, 100, 100, 100, 100, 100, 100, 100, 100, 100, 100, 100, 100, 100, 100, 100, 100, 100, 100, 100, 100, 100, 100];
JobSize=[4, 1, 4, 5, 3, 1, 1, 2, 2, 4, 3, 1, 2, 3, 5, 4, 5, 1, 3, 1, 5, 1, 3, 2, 2, 3, 1, 2, 1, 3, 3, 5, 5, 5, 4, 4, 5, 5, 1, 4, 3, 3, 5, 5, 3, 3, 5, 3, 3, 2, 3, 4, 2, 2, 1, 3, 2, 3, 4, 5, 4, 4, 3, 2, 3, 2, 5, 3, 5, 3, 3, 5, 3, 4, 3, 4, 4, 5, 1, 1, 1, 4, 3, 1, 3, 3, 5, 1, 5, 4, 5, 2, 2, 5, 2, 1, 3, 5, 3, 3, 1, 3, 3, 5, 2, 1, 5, 3, 5, 5, 2, 5, 2, 4, 4, 1, 2, 3, 3, 5, 3, 1, 1, 2, 4, 3, 2, 1, 2, 2, 2, 4, 3, 5, 3, 3, 1, 1, 5, 1, 5, 2, 3, 2, 5, 1, 1, 2, 4, 1, 2, 2, 1, 4, 2, 1, 2, 5, 4, 1, 3, 2, 5, 3, 4, 4, 1, 2, 2, 3, 1, 1, 1, 5, 2, 2, 3, 3, 3, 4, 1, 3, 3, 3, 5, 2, 3, 4, 3, 4, 2, 5, 5, 3, 2, 2, 1, 5, 1, 5, 5, 3, 1, 1, 5, 3, 5, 2, 5, 2, 3, 4, 1, 1, 3, 3, 4, 1, 2, 4, 4, 3, 4, 3, 1, 5, 1, 1, 3, 2, 5, 1, 1, 1, 4, 2, 2, 2, 3, 4, 5, 2, 1, 5, 5, 5, 3, 5, 3, 1];
Attribute=[1, 1, 5, 1, 2, 1, 5, 1, 2, 2, 1, 1, 1, 4, 4, 3, 4, 4, 5, 4, 4, 5, 1, 4, 5, 4, 3, 2, 1, 1, 1, 5, 4, 1, 4, 5, 1, 1, 2, 3, 5, 1, 3, 5, 1, 3, 4, 3, 3, 5, 1, 5, 3, 4, 3, 3, 2, 1, 2, 2, 2, 4, 4, 3, 4, 3, 1, 4, 5, 5, 1, 2, 5, 1, 2, 2, 2, 3, 4, 2, 3, 4, 2, 5, 4, 1, 4, 3, 5, 4, 5, 1, 2, 3, 2, 3, 2, 3, 5, 2, 2, 1, 2, 4, 5, 2, 1, 4, 1, 1, 5, 3, 4, 4, 2, 5, 4, 3, 5, 5, 3, 5, 4, 4, 1, 3, 5, 5, 5, 5, 1, 5, 5, 1, 3, 5, 4, 4, 4, 4, 2, 1, 3, 5, 3, 3, 5, 5, 4, 4, 3, 5, 2, 1, 5, 1, 4, 5, 1, 1, 1, 5, 1, 5, 4, 4, 1, 2, 4, 4, 3, 5, 4, 4, 2, 4, 5, 5, 4, 1, 3, 4, 4, 3, 3, 5, 5, 4, 5, 5, 5, 2, 5, 5, 1, 5, 4, 1, 2, 1, 3, 5, 5, 3, 1, 3, 5, 4, 4, 3, 1, 3, 1, 4, 1, 4, 2, 3, 5, 5, 3, 2, 1, 4, 5, 5, 5, 3, 5, 5, 2, 5, 2, 5, 3, 5, 1, 4, 1, 3, 4, 4, 4, 4, 3, 1, 2, 3, 4, 4];

upper_bound_integer_objective=9750000;
mult_factor_total_runtime=300;
mult_factor_finished_toolate=15600;
mult_factor_total_setuptimes=0;
mult_factor_total_setupcosts=312;
running_time_bound=12990;
min_duration=1;
max_duration=100;
max_setup_time=24;
max_setup_cost=25;
